(define-fun
  h3
  ((x Int)) Int x)
(define-fun
  h2
  ((x Int)) Int x)
(define-fun
  g2
  ((x Int)) Int x)
(define-fun
  g1
  ((x Int) (y Int)) Int y)
(define-fun
  g0
  ((x Int)) Int x)
(define-fun
  f3
  ((x Int)) Int
  (+
    (mod (+ (div (- (div x (+ 2 (* 2 (* 2 (+ 2 2))))) x) (+ 2 2)) x) 2)
    x))
(define-fun-rec
  u3
  ((x Int) (y Int)) Int (ite (<= x 0) y (f3 (u3 (- x 1) y))))
(define-fun
  v3
  ((x Int)) Int (u3 2 x))
(define-fun
  fast
  ((x Int)) Int (mod (+ (+ (v3 x) 1) x) 2))
(define-fun
  f2
  ((x Int)) Int (div x (ite (<= (mod x (+ 2 2)) 0) 1 2)))
(define-fun-rec
  u2
  ((x Int) (y Int)) Int (ite (<= x 0) y (f2 (u2 (- x 1) y))))
(define-fun
  v2
  ((x Int)) Int (u2 x x))
(define-fun-rec
  t1
  ((x Int)) Int (ite (<= (v2 x) 0) x (t1 (+ x 1))))
(define-fun-rec
  u1
  ((x Int)) Int (ite (<= x 0) (t1 0) (t1 (+ (u1 (- x 1)) 1))))
(define-fun
  v1
  ((x Int) (y Int)) Int (u1 y))
(define-fun-rec
  u0
  ((x Int) (y Int)) Int (ite (<= x 0) y (v1 (u0 (- x 1) y) x)))
(define-fun
  v0
  ((x Int)) Int (u0 x 1))
(define-fun
  small
  ((x Int)) Int (mod (v0 x) 2))
(assert-not
  (forall ((c Int)) (or (not (>= c 0)) (= (small c) (fast c)))))
